(declare-const conc0 Real)
(assert (and (>= conc0 0) (<= conc0 100)))
(declare-const conc1 Real)
(assert (and (>= conc1 0) (<= conc1 100)))
(declare-const conc2 Real)
(assert (and (>= conc2 0) (<= conc2 100)))
(declare-const conc3 Real)
(assert (and (>= conc3 0) (<= conc3 100)))
(declare-const d_ent0 Real)
(declare-const d_ent1 Real)
(declare-const d_ent2 Real)
(declare-const d_ent3 Real)
(declare-const d_flow0 Real)
(declare-const d_flow1 Real)
(declare-const d_flow2 Real)
(declare-const coef0 Real)
(assert (= coef0 (- (* 0.7686476707 conc0 conc1 ) (* 1.0000000000 conc2 ))))
(declare-const coef1 Real)
(assert (= coef1 (- (* 0.8501778841 conc0 conc2 ) (* 1.0000000000 conc3 ))))
(declare-const coef2 Real)
(assert (= coef2 (- (* 0.5286431313 conc1 conc1 ) (* 1.0000000000 conc3 ))))
(assert (> (+ (- coef0) (- coef2) (- coef2) 0) 0.0001000000))
(assert (> (+ coef0 (- coef1) 0) 0.0001000000))
(assert (> (+ coef1 coef2 0) 0.0001000000))
(assert (= d_ent0 (+ (- coef0) (- coef1) 4.5814976692 (* -1. 2.1658987999 conc0))))
(assert (= d_ent1 (+ (- coef0) (- coef2) (- coef2) 0.0000000000 (* -1. 0.0099999998 conc1))))
(assert (= d_ent2 (+ coef0 (- coef1) 0.0000000000 (* -1. 0.0099999998 conc2))))
(assert (= d_ent3 (+ coef1 coef2 0.0000000000 (* -1. 0.0099999998 conc3))))
(assert (= d_flow0 (* coef0 (+ (* d_ent0 conc1) (* d_ent1 conc0) (* -1. d_ent2)))))
(assert (= d_flow1 (* coef1 (+ (* d_ent0 conc2) (* d_ent2 conc0) (* -1. d_ent3)))))
(assert (= d_flow2 (* coef2 (+ (* d_ent1 conc1) (* d_ent1 conc1) (* -1. d_ent3)))))
(assert (> (+ (- d_flow0) (- d_flow2) (- d_flow2) 0) 0.0000000000))
(assert (> (+ d_flow0 (- d_flow1) 0) 0.0000000000))
(assert (> (+ d_flow1 d_flow2 0) 0.0000000000))
(check-sat)
(get-model)
